experiment/data/lkh-res/Vrp-Set-X-n502/Vrp-Set-X-n502-lkh/0.lkh1.vrp
NAME : 0
COMMENT : CVRP Instance
TYPE : CVRP
DIMENSION : 502
EDGE_WEIGHT_TYPE : EUC_2D
CAPACITY : 13
NODE_COORD_SECTION
1	0	0
2	15900	91700
3	63500	20000
4	27800	90700
5	66700	14100
6	11900	95400
7	2900	44800
8	59000	8700
9	37500	99000
10	51100	37400
11	29800	95700
12	10700	91100
13	32300	76600
14	16100	89200
15	15100	91200
16	43800	100000
17	28400	93300
18	72400	19100
19	28600	94000
20	14400	78500
21	67200	15700
22	75900	17600
23	55300	17900
24	62500	16700
25	13300	92400
26	69500	7300
27	14900	94600
28	59900	16200
29	30500	71200
30	22900	70900
31	33200	87400
32	75600	14300
33	69600	24800
34	9400	77700
35	38100	97500
36	22400	92800
37	41400	95100
38	91000	19000
39	74900	16200
40	66800	27300
41	14600	78600
42	1700	79300
43	25500	88300
44	32600	83700
45	54900	22600
46	13700	86800
47	7400	97700
48	61800	24800
49	32800	89800
50	6200	80200
51	17700	91400
52	64600	20800
53	66600	14200
54	59100	20500
55	16300	87300
56	72100	16400
57	62300	15300
58	33300	95600
59	23700	87400
60	72900	10200
61	33000	89600
62	19200	94900
63	44600	93000
64	14800	89700
65	9200	87600
66	38900	94200
67	13100	84700
68	23700	99000
69	59400	14900
70	78000	19000
71	71900	27100
72	16800	98200
73	27800	91100
74	25600	89600
75	27900	90300
76	61300	4700
77	59700	18700
78	44000	29600
79	32000	87200
80	26100	92500
81	30100	93100
82	59900	21800
83	22700	86000
84	59100	18900
85	31900	99200
86	61700	17200
87	11800	83900
88	11700	90900
89	57800	30000
90	50300	96600
91	23200	90700
92	3400	95500
93	19100	81600
94	27300	4200
95	17100	87700
96	13200	92000
97	11300	90600
98	58100	12500
99	13800	91000
100	14900	87000
101	62200	30300
102	27800	84500
103	58700	6000
104	23400	81800
105	31000	83200
106	56800	22700
107	71100	16700
108	72800	25100
109	18500	93700
110	11000	84000
111	25400	94500
112	14000	93700
113	23800	91900
114	900	87500
115	9700	79900
116	80400	10000
117	24300	92700
118	31000	93800
119	17100	82600
120	67700	21300
121	70800	16600
122	15100	93100
123	26200	92000
124	12100	76900
125	14900	66000
126	19900	74900
127	7800	73800
128	32300	96300
129	6300	79900
130	23300	93100
131	69300	17000
132	67300	15600
133	21300	98000
134	62000	19100
135	12500	94600
136	74800	11700
137	25000	92600
138	66100	32700
139	14700	83100
140	18100	92300
141	54800	23500
142	68200	15700
143	26300	89800
144	46900	33900
145	14400	91500
146	56900	23400
147	57700	45000
148	59800	23100
149	69300	22900
150	22700	95200
151	21100	64300
152	1200	94200
153	28800	96900
154	73400	31200
155	64100	3700
156	24100	76100
157	61800	20600
158	15600	91500
159	71200	39100
160	7400	78700
161	70500	10900
162	24000	90200
163	60300	33800
164	57200	36300
165	62000	20400
166	27200	92500
167	65200	23100
168	58500	29900
169	10700	78900
170	61700	22300
171	24200	90700
172	60100	24000
173	45300	38800
174	30100	88900
175	24600	81800
176	35600	91600
177	68100	23800
178	60700	11900
179	35100	97000
180	15900	89600
181	58200	15600
182	47200	25700
183	14300	87800
184	11300	92600
185	23600	88800
186	73800	7300
187	67700	19400
188	71600	19600
189	53200	30400
190	33400	77200
191	51400	32600
192	22000	71200
193	63100	12100
194	53100	26200
195	70700	22800
196	61700	16000
197	62400	15100
198	60900	19100
199	59900	22800
200	21000	72700
201	48100	7800
202	23900	74900
203	65000	37300
204	55000	13800
205	39300	80700
206	19500	80600
207	8100	87300
208	37500	82900
209	50600	10400
210	10400	89800
211	67400	22500
212	27100	91000
213	22200	80600
214	65500	3700
215	32400	84700
216	62200	5400
217	39900	21300
218	10100	87500
219	66800	40200
220	3000	89500
221	24100	84200
222	62700	17600
223	86900	23500
224	81200	22300
225	56100	28600
226	17100	97300
227	58200	24200
228	19200	85800
229	65100	18300
230	17500	84000
231	36500	94600
232	21500	77000
233	12500	92400
234	29600	98400
235	68200	17400
236	16500	84600
237	13600	98200
238	39700	82100
239	18500	80700
240	23600	97200
241	27800	94800
242	33800	88000
243	75900	21500
244	49800	5100
245	17700	96200
246	25300	87800
247	19000	86500
248	61200	26600
249	20400	90200
250	16900	87700
251	10100	87700
252	58600	24700
253	24200	88500
254	23500	77500
255	58500	20100
256	59200	16400
257	46100	89700
258	65200	24600
259	26700	89900
260	20400	86000
261	29800	85200
262	15600	93600
263	13500	97700
264	26800	92700
265	30300	91800
266	11000	87700
267	62500	24800
268	26500	85700
269	59200	32500
270	71500	11500
271	56500	37600
272	30600	75900
273	20800	96100
274	12000	89200
275	11500	96300
276	3300	72600
277	75000	22700
278	43200	92700
279	9700	80200
280	55200	30300
281	25700	84600
282	19100	87300
283	59500	18900
284	19000	81500
285	17500	94900
286	35900	93200
287	45800	24600
288	17500	87200
289	48600	17300
290	32000	81800
291	20700	94500
292	3200	89400
293	18300	83700
294	7600	93700
295	15400	97200
296	21500	88600
297	64700	22500
298	9000	96300
299	63500	19900
300	31000	86000
301	75700	28100
302	52800	22200
303	18700	94700
304	56800	14400
305	17900	89300
306	42900	93900
307	32300	84100
308	52700	7700
309	11600	88300
310	79200	27400
311	61100	28200
312	17000	92700
313	77600	40800
314	13600	92500
315	16100	96800
316	57500	23700
317	28300	91100
318	68400	26900
319	30300	95700
320	9800	84300
321	60800	14500
322	13600	93400
323	41200	88500
324	43500	87900
325	42100	26500
326	18900	91600
327	29600	92500
328	39400	96900
329	16100	85600
330	22200	94700
331	18900	81600
332	47000	25600
333	23900	87500
334	17100	88800
335	43300	77600
336	43400	17000
337	20500	94100
338	5500	87200
339	35400	80300
340	61200	18900
341	13500	85700
342	66400	21500
343	14500	86300
344	74000	7100
345	10200	94600
346	59200	25000
347	51900	9900
348	21400	88400
349	40200	98300
350	59300	17400
351	11800	92200
352	73800	12100
353	4100	94800
354	35000	70500
355	54400	12400
356	19600	68100
357	16000	88900
358	15900	85800
359	65400	19500
360	78200	27500
361	32800	86400
362	60500	66800
363	24100	88500
364	74000	40400
365	26600	91400
366	71700	18000
367	45800	8100
368	68400	23000
369	30100	86000
370	18000	92000
371	30100	86500
372	29400	96400
373	38300	91200
374	55900	14300
375	74700	38300
376	43300	96600
377	56300	25800
378	82700	14500
379	29400	78400
380	14700	70700
381	17300	94400
382	29800	91500
383	17500	92300
384	33300	91900
385	28000	86900
386	59600	21900
387	61400	28600
388	10400	86100
389	27900	77100
390	18800	93800
391	10000	84000
392	11700	86600
393	72200	12600
394	21500	85300
395	27600	89300
396	44400	29600
397	54700	28600
398	21300	80300
399	8600	99000
400	17300	94700
401	67200	17300
402	13000	98300
403	36000	98700
404	71800	19200
405	6600	81700
406	65700	9700
407	3300	91400
408	64900	41400
409	68000	20800
410	62300	26600
411	67800	10100
412	27000	86400
413	62000	23200
414	33500	93500
415	45100	5700
416	29500	98700
417	10100	73800
418	35900	88100
419	15800	93400
420	18200	91900
421	71700	17700
422	65300	5400
423	68300	13900
424	38100	92800
425	27700	96200
426	64500	23800
427	60800	26700
428	62500	21700
429	56500	7600
430	52300	18800
431	51900	85500
432	16500	94700
433	30500	92200
434	40600	29400
435	12500	70200
436	22700	85800
437	77400	3600
438	61100	20400
439	10700	70300
440	20900	97900
441	55700	17500
442	8000	90300
443	17200	89000
444	20300	98400
445	66500	20000
446	23000	89200
447	13800	91400
448	27000	87200
449	70200	19800
450	73700	25800
451	15000	97500
452	66600	19600
453	17400	80400
454	26600	95900
455	14200	93600
456	14200	97600
457	7900	75000
458	20800	83600
459	43900	24000
460	43800	33900
461	84100	23000
462	28900	91000
463	19100	88800
464	30900	86100
465	24200	95800
466	40800	93200
467	24300	95400
468	61600	20000
469	72900	28100
470	64200	23000
471	70700	10600
472	39500	67800
473	13400	82000
474	51400	19700
475	54700	23600
476	66000	9800
477	0	92300
478	19000	87000
479	30200	67300
480	5000	96700
481	7900	93000
482	62800	25400
483	300	96500
484	15900	98800
485	61300	25200
486	22900	83300
487	34300	87700
488	25500	77200
489	62600	24600
490	33200	92100
491	21400	86100
492	20000	88200
493	11700	87200
494	11900	96400
495	37000	86500
496	63200	24300
497	30400	89300
498	5200	89900
499	43400	23200
500	28800	77300
501	30100	90500
502	28400	79900
DEMAND_SECTION
1	0
2	1
3	1
4	1
5	1
6	1
7	1
8	1
9	1
10	1
11	1
12	1
13	1
14	1
15	1
16	1
17	1
18	1
19	1
20	1
21	1
22	1
23	1
24	1
25	1
26	1
27	1
28	1
29	1
30	1
31	1
32	1
33	1
34	1
35	1
36	1
37	1
38	1
39	1
40	1
41	1
42	1
43	1
44	1
45	1
46	1
47	1
48	1
49	1
50	1
51	1
52	1
53	1
54	1
55	1
56	1
57	1
58	1
59	1
60	1
61	1
62	1
63	1
64	1
65	1
66	1
67	1
68	1
69	1
70	1
71	1
72	1
73	1
74	1
75	1
76	1
77	1
78	1
79	1
80	1
81	1
82	1
83	1
84	1
85	1
86	1
87	1
88	1
89	1
90	1
91	1
92	1
93	1
94	1
95	1
96	1
97	1
98	1
99	1
100	1
101	1
102	1
103	1
104	1
105	1
106	1
107	1
108	1
109	1
110	1
111	1
112	1
113	1
114	1
115	1
116	1
117	1
118	1
119	1
120	1
121	1
122	1
123	1
124	1
125	1
126	1
127	1
128	1
129	1
130	1
131	1
132	1
133	1
134	1
135	1
136	1
137	1
138	1
139	1
140	1
141	1
142	1
143	1
144	1
145	1
146	1
147	1
148	1
149	1
150	1
151	1
152	1
153	1
154	1
155	1
156	1
157	1
158	1
159	1
160	1
161	1
162	1
163	1
164	1
165	1
166	1
167	1
168	1
169	1
170	1
171	1
172	1
173	1
174	1
175	1
176	1
177	1
178	1
179	1
180	1
181	1
182	1
183	1
184	1
185	1
186	1
187	1
188	1
189	1
190	1
191	1
192	1
193	1
194	1
195	1
196	1
197	1
198	1
199	1
200	1
201	1
202	1
203	1
204	1
205	1
206	1
207	1
208	1
209	1
210	1
211	1
212	1
213	1
214	1
215	1
216	1
217	1
218	1
219	1
220	1
221	1
222	1
223	1
224	1
225	1
226	1
227	1
228	1
229	1
230	1
231	1
232	1
233	1
234	1
235	1
236	1
237	1
238	1
239	1
240	1
241	1
242	1
243	1
244	1
245	1
246	1
247	1
248	1
249	1
250	1
251	1
252	1
253	1
254	1
255	1
256	1
257	1
258	1
259	1
260	1
261	1
262	1
263	1
264	1
265	1
266	1
267	1
268	1
269	1
270	1
271	1
272	1
273	1
274	1
275	1
276	1
277	1
278	1
279	1
280	1
281	1
282	1
283	1
284	1
285	1
286	1
287	1
288	1
289	1
290	1
291	1
292	1
293	1
294	1
295	1
296	1
297	1
298	1
299	1
300	1
301	1
302	1
303	1
304	1
305	1
306	1
307	1
308	1
309	1
310	1
311	1
312	1
313	1
314	1
315	1
316	1
317	1
318	1
319	1
320	1
321	1
322	1
323	1
324	1
325	1
326	1
327	1
328	1
329	1
330	1
331	1
332	1
333	1
334	1
335	1
336	1
337	1
338	1
339	1
340	1
341	1
342	1
343	1
344	1
345	1
346	1
347	1
348	1
349	1
350	1
351	1
352	1
353	1
354	1
355	1
356	1
357	1
358	1
359	1
360	1
361	1
362	1
363	1
364	1
365	1
366	1
367	1
368	1
369	1
370	1
371	1
372	1
373	1
374	1
375	1
376	1
377	1
378	1
379	1
380	1
381	1
382	1
383	1
384	1
385	1
386	1
387	1
388	1
389	1
390	1
391	1
392	1
393	1
394	1
395	1
396	1
397	1
398	1
399	1
400	1
401	1
402	1
403	1
404	1
405	1
406	1
407	1
408	1
409	1
410	1
411	1
412	1
413	1
414	1
415	1
416	1
417	1
418	1
419	1
420	1
421	1
422	1
423	1
424	1
425	1
426	1
427	1
428	1
429	1
430	1
431	1
432	1
433	1
434	1
435	1
436	1
437	1
438	1
439	1
440	1
441	1
442	1
443	1
444	1
445	1
446	1
447	1
448	1
449	1
450	1
451	1
452	1
453	1
454	1
455	1
456	1
457	1
458	1
459	1
460	1
461	1
462	1
463	1
464	1
465	1
466	1
467	1
468	1
469	1
470	1
471	1
472	1
473	1
474	1
475	1
476	1
477	1
478	1
479	1
480	1
481	1
482	1
483	1
484	1
485	1
486	1
487	1
488	1
489	1
490	1
491	1
492	1
493	1
494	1
495	1
496	1
497	1
498	1
499	1
500	1
501	1
502	1
DEPOT_SECTION
1
-1
EOF
