experiment/data/lkh-res/Vrp-Set-X-n502/Vrp-Set-X-n502-lkh/0.lkh1.log
PARAMETER_FILE = baseline_results/cvrp_lkh/Vrp-Set-X-n502/Vrp-Set-X-n502-lkh/0.lkh1.par
Reading PROBLEM_FILE: "baseline_results/cvrp_lkh/Vrp-Set-X-n502/Vrp-Set-X-n502-lkh/0.lkh1.vrp" ... done
ASCENT_CANDIDATES = 50
BACKBONE_TRIALS = 0
BACKTRACKING = NO
# BWTSP =
# CANDIDATE_FILE =
CANDIDATE_SET_TYPE = ALPHA
# DISTANCE =
DEPOT = 1
# EDGE_FILE =
EXCESS = 0.00199203
EXTERNAL_SALESMEN = 0
EXTRA_CANDIDATES = 0 
EXTRA_CANDIDATE_SET_TYPE = QUADRANT
GAIN23 = NO
GAIN_CRITERION = YES
INITIAL_PERIOD = 251
INITIAL_STEP_SIZE = 1
INITIAL_TOUR_ALGORITHM = WALK
# INITIAL_TOUR_FILE = 
INITIAL_TOUR_FRACTION = 1.000
# INPUT_TOUR_FILE = 
KICK_TYPE = 4
KICKS = 1
# MAX_BREADTH =
MAKESPAN = NO
MAX_CANDIDATES = 5 
MAX_SWAPS = 0
MAX_TRIALS = 10000
# MERGE_TOUR_FILE =
MOVE_TYPE = 5 SPECIAL
MTSP_MIN_SIZE = 1
MTSP_MAX_SIZE = 501
# MTSP_SOLUTION_FILE = 
# NONSEQUENTIAL_MOVE_TYPE = 5
# OPTIMUM =
OUTPUT_TOUR_FILE = baseline_results/cvrp_lkh/Vrp-Set-X-n502/Vrp-Set-X-n502-lkh/0.lkh1.tour
PATCHING_A = 1 
PATCHING_C = 0 
# PI_FILE = 
POPMUSIC_INITIAL_TOUR = NO
POPMUSIC_MAX_NEIGHBORS = 5
POPMUSIC_SAMPLE_SIZE = 10
POPMUSIC_SOLUTIONS = 50
POPMUSIC_TRIALS = 1
POPULATION_SIZE = 10
PRECISION = 100
PROBLEM_FILE = baseline_results/cvrp_lkh/Vrp-Set-X-n502/Vrp-Set-X-n502-lkh/0.lkh1.vrp
RECOMBINATION = IPT
RESTRICTED_SEARCH = YES
RUNS = 1
SALESMEN = 39
SCALE = 1
SEED = 1234
# SINTEF_SOLUTION_FILE = 
STOP_AT_OPTIMUM = YES
SUBGRADIENT = YES
# SUBPROBLEM_SIZE =
# SUBPROBLEM_TOUR_FILE = 
SUBSEQUENT_MOVE_TYPE = 5 SPECIAL
SUBSEQUENT_PATCHING = YES
# TIME_LIMIT =
# TOTAL_TIME_LIMIT =
# TOUR_FILE = 
TRACE_LEVEL = 1
VEHICLES = 39

Lower bound = 4956496.7, Ascent time = 0.26 sec.
Cand.min = 2, Cand.avg = 5.0, Cand.max = 5
Preprocessing time = 0.26 sec.
* 1: Cost = 0_7434004, Time = 0.51 sec. 
Writing OUTPUT_TOUR_FILE: "baseline_results/cvrp_lkh/Vrp-Set-X-n502/Vrp-Set-X-n502-lkh/0.lkh1.tour" ... done
* 4: Cost = 0_7301067, Time = 0.52 sec. 
Writing OUTPUT_TOUR_FILE: "baseline_results/cvrp_lkh/Vrp-Set-X-n502/Vrp-Set-X-n502-lkh/0.lkh1.tour" ... done
* 5: Cost = 0_7293648, Time = 0.52 sec. 
Writing OUTPUT_TOUR_FILE: "baseline_results/cvrp_lkh/Vrp-Set-X-n502/Vrp-Set-X-n502-lkh/0.lkh1.tour" ... done
* 6: Cost = 0_7287316, Time = 0.54 sec. 
Writing OUTPUT_TOUR_FILE: "baseline_results/cvrp_lkh/Vrp-Set-X-n502/Vrp-Set-X-n502-lkh/0.lkh1.tour" ... done
* 7: Cost = 0_7286900, Time = 0.54 sec. 
Writing OUTPUT_TOUR_FILE: "baseline_results/cvrp_lkh/Vrp-Set-X-n502/Vrp-Set-X-n502-lkh/0.lkh1.tour" ... done
* 11: Cost = 0_7176778, Time = 0.57 sec. 
Writing OUTPUT_TOUR_FILE: "baseline_results/cvrp_lkh/Vrp-Set-X-n502/Vrp-Set-X-n502-lkh/0.lkh1.tour" ... done
* 14: Cost = 0_7176538, Time = 0.58 sec. 
Writing OUTPUT_TOUR_FILE: "baseline_results/cvrp_lkh/Vrp-Set-X-n502/Vrp-Set-X-n502-lkh/0.lkh1.tour" ... done
* 15: Cost = 0_7174084, Time = 0.58 sec. 
Writing OUTPUT_TOUR_FILE: "baseline_results/cvrp_lkh/Vrp-Set-X-n502/Vrp-Set-X-n502-lkh/0.lkh1.tour" ... done
* 22: Cost = 0_7172206, Time = 0.63 sec. 
Writing OUTPUT_TOUR_FILE: "baseline_results/cvrp_lkh/Vrp-Set-X-n502/Vrp-Set-X-n502-lkh/0.lkh1.tour" ... done
* 26: Cost = 0_7171257, Time = 0.65 sec. 
Writing OUTPUT_TOUR_FILE: "baseline_results/cvrp_lkh/Vrp-Set-X-n502/Vrp-Set-X-n502-lkh/0.lkh1.tour" ... done
* 27: Cost = 0_7170804, Time = 0.65 sec. 
Writing OUTPUT_TOUR_FILE: "baseline_results/cvrp_lkh/Vrp-Set-X-n502/Vrp-Set-X-n502-lkh/0.lkh1.tour" ... done
* 30: Cost = 0_7167742, Time = 0.68 sec. 
Writing OUTPUT_TOUR_FILE: "baseline_results/cvrp_lkh/Vrp-Set-X-n502/Vrp-Set-X-n502-lkh/0.lkh1.tour" ... done
* 34: Cost = 0_7167442, Time = 0.69 sec. 
Writing OUTPUT_TOUR_FILE: "baseline_results/cvrp_lkh/Vrp-Set-X-n502/Vrp-Set-X-n502-lkh/0.lkh1.tour" ... done
* 35: Cost = 0_7167260, Time = 0.71 sec. 
Writing OUTPUT_TOUR_FILE: "baseline_results/cvrp_lkh/Vrp-Set-X-n502/Vrp-Set-X-n502-lkh/0.lkh1.tour" ... done
* 36: Cost = 0_7151259, Time = 0.74 sec. 
Writing OUTPUT_TOUR_FILE: "baseline_results/cvrp_lkh/Vrp-Set-X-n502/Vrp-Set-X-n502-lkh/0.lkh1.tour" ... done
* 43: Cost = 0_7150474, Time = 0.86 sec. 
Writing OUTPUT_TOUR_FILE: "baseline_results/cvrp_lkh/Vrp-Set-X-n502/Vrp-Set-X-n502-lkh/0.lkh1.tour" ... done
* 46: Cost = 0_7150089, Time = 0.89 sec. 
Writing OUTPUT_TOUR_FILE: "baseline_results/cvrp_lkh/Vrp-Set-X-n502/Vrp-Set-X-n502-lkh/0.lkh1.tour" ... done
* 51: Cost = 0_7143288, Time = 0.99 sec. 
Writing OUTPUT_TOUR_FILE: "baseline_results/cvrp_lkh/Vrp-Set-X-n502/Vrp-Set-X-n502-lkh/0.lkh1.tour" ... done
* 65: Cost = 0_7140715, Time = 1.03 sec. 
Writing OUTPUT_TOUR_FILE: "baseline_results/cvrp_lkh/Vrp-Set-X-n502/Vrp-Set-X-n502-lkh/0.lkh1.tour" ... done
* 67: Cost = 0_7139616, Time = 1.03 sec. 
Writing OUTPUT_TOUR_FILE: "baseline_results/cvrp_lkh/Vrp-Set-X-n502/Vrp-Set-X-n502-lkh/0.lkh1.tour" ... done
* 68: Cost = 0_7139070, Time = 1.04 sec. 
Writing OUTPUT_TOUR_FILE: "baseline_results/cvrp_lkh/Vrp-Set-X-n502/Vrp-Set-X-n502-lkh/0.lkh1.tour" ... done
* 70: Cost = 0_7131621, Time = 1.05 sec. 
Writing OUTPUT_TOUR_FILE: "baseline_results/cvrp_lkh/Vrp-Set-X-n502/Vrp-Set-X-n502-lkh/0.lkh1.tour" ... done
* 75: Cost = 0_7127290, Time = 1.05 sec. 
Writing OUTPUT_TOUR_FILE: "baseline_results/cvrp_lkh/Vrp-Set-X-n502/Vrp-Set-X-n502-lkh/0.lkh1.tour" ... done
* 78: Cost = 0_7124091, Time = 1.08 sec. 
Writing OUTPUT_TOUR_FILE: "baseline_results/cvrp_lkh/Vrp-Set-X-n502/Vrp-Set-X-n502-lkh/0.lkh1.tour" ... done
* 82: Cost = 0_7119060, Time = 1.09 sec. 
Writing OUTPUT_TOUR_FILE: "baseline_results/cvrp_lkh/Vrp-Set-X-n502/Vrp-Set-X-n502-lkh/0.lkh1.tour" ... done
* 83: Cost = 0_7102712, Time = 1.12 sec. 
Writing OUTPUT_TOUR_FILE: "baseline_results/cvrp_lkh/Vrp-Set-X-n502/Vrp-Set-X-n502-lkh/0.lkh1.tour" ... done
* 84: Cost = 0_7101969, Time = 1.12 sec. 
Writing OUTPUT_TOUR_FILE: "baseline_results/cvrp_lkh/Vrp-Set-X-n502/Vrp-Set-X-n502-lkh/0.lkh1.tour" ... done
* 87: Cost = 0_7086634, Time = 1.16 sec. 
Writing OUTPUT_TOUR_FILE: "baseline_results/cvrp_lkh/Vrp-Set-X-n502/Vrp-Set-X-n502-lkh/0.lkh1.tour" ... done
* 89: Cost = 0_7070652, Time = 1.19 sec. 
Writing OUTPUT_TOUR_FILE: "baseline_results/cvrp_lkh/Vrp-Set-X-n502/Vrp-Set-X-n502-lkh/0.lkh1.tour" ... done
* 90: Cost = 0_7070582, Time = 1.21 sec. 
Writing OUTPUT_TOUR_FILE: "baseline_results/cvrp_lkh/Vrp-Set-X-n502/Vrp-Set-X-n502-lkh/0.lkh1.tour" ... done
* 94: Cost = 0_7067188, Time = 1.22 sec. 
Writing OUTPUT_TOUR_FILE: "baseline_results/cvrp_lkh/Vrp-Set-X-n502/Vrp-Set-X-n502-lkh/0.lkh1.tour" ... done
* 95: Cost = 0_7043974, Time = 1.25 sec. 
Writing OUTPUT_TOUR_FILE: "baseline_results/cvrp_lkh/Vrp-Set-X-n502/Vrp-Set-X-n502-lkh/0.lkh1.tour" ... done
* 99: Cost = 0_7042060, Time = 1.26 sec. 
Writing OUTPUT_TOUR_FILE: "baseline_results/cvrp_lkh/Vrp-Set-X-n502/Vrp-Set-X-n502-lkh/0.lkh1.tour" ... done
* 100: Cost = 0_7041900, Time = 1.26 sec. 
Writing OUTPUT_TOUR_FILE: "baseline_results/cvrp_lkh/Vrp-Set-X-n502/Vrp-Set-X-n502-lkh/0.lkh1.tour" ... done
* 101: Cost = 0_7041248, Time = 1.27 sec. 
Writing OUTPUT_TOUR_FILE: "baseline_results/cvrp_lkh/Vrp-Set-X-n502/Vrp-Set-X-n502-lkh/0.lkh1.tour" ... done
* 104: Cost = 0_7037317, Time = 1.29 sec. 
Writing OUTPUT_TOUR_FILE: "baseline_results/cvrp_lkh/Vrp-Set-X-n502/Vrp-Set-X-n502-lkh/0.lkh1.tour" ... done
* 105: Cost = 0_7036478, Time = 1.30 sec. 
Writing OUTPUT_TOUR_FILE: "baseline_results/cvrp_lkh/Vrp-Set-X-n502/Vrp-Set-X-n502-lkh/0.lkh1.tour" ... done
* 106: Cost = 0_7029790, Time = 1.33 sec. 
Writing OUTPUT_TOUR_FILE: "baseline_results/cvrp_lkh/Vrp-Set-X-n502/Vrp-Set-X-n502-lkh/0.lkh1.tour" ... done
* 107: Cost = 0_7027001, Time = 1.34 sec. 
Writing OUTPUT_TOUR_FILE: "baseline_results/cvrp_lkh/Vrp-Set-X-n502/Vrp-Set-X-n502-lkh/0.lkh1.tour" ... done
* 108: Cost = 0_7026518, Time = 1.34 sec. 
Writing OUTPUT_TOUR_FILE: "baseline_results/cvrp_lkh/Vrp-Set-X-n502/Vrp-Set-X-n502-lkh/0.lkh1.tour" ... done
* 115: Cost = 0_7024321, Time = 1.62 sec. 
Writing OUTPUT_TOUR_FILE: "baseline_results/cvrp_lkh/Vrp-Set-X-n502/Vrp-Set-X-n502-lkh/0.lkh1.tour" ... done
* 118: Cost = 0_7024231, Time = 1.74 sec. 
Writing OUTPUT_TOUR_FILE: "baseline_results/cvrp_lkh/Vrp-Set-X-n502/Vrp-Set-X-n502-lkh/0.lkh1.tour" ... done
* 119: Cost = 0_7020184, Time = 1.74 sec. 
Writing OUTPUT_TOUR_FILE: "baseline_results/cvrp_lkh/Vrp-Set-X-n502/Vrp-Set-X-n502-lkh/0.lkh1.tour" ... done
* 122: Cost = 0_7019802, Time = 1.75 sec. 
Writing OUTPUT_TOUR_FILE: "baseline_results/cvrp_lkh/Vrp-Set-X-n502/Vrp-Set-X-n502-lkh/0.lkh1.tour" ... done
* 123: Cost = 0_7017262, Time = 1.76 sec. 
Writing OUTPUT_TOUR_FILE: "baseline_results/cvrp_lkh/Vrp-Set-X-n502/Vrp-Set-X-n502-lkh/0.lkh1.tour" ... done
* 132: Cost = 0_7015022, Time = 1.96 sec. 
Writing OUTPUT_TOUR_FILE: "baseline_results/cvrp_lkh/Vrp-Set-X-n502/Vrp-Set-X-n502-lkh/0.lkh1.tour" ... done
* 135: Cost = 0_7012524, Time = 1.99 sec. 
Writing OUTPUT_TOUR_FILE: "baseline_results/cvrp_lkh/Vrp-Set-X-n502/Vrp-Set-X-n502-lkh/0.lkh1.tour" ... done
* 137: Cost = 0_7012223, Time = 2.00 sec. 
Writing OUTPUT_TOUR_FILE: "baseline_results/cvrp_lkh/Vrp-Set-X-n502/Vrp-Set-X-n502-lkh/0.lkh1.tour" ... done
* 140: Cost = 0_7012066, Time = 2.16 sec. 
Writing OUTPUT_TOUR_FILE: "baseline_results/cvrp_lkh/Vrp-Set-X-n502/Vrp-Set-X-n502-lkh/0.lkh1.tour" ... done
* 143: Cost = 0_7010739, Time = 2.19 sec. 
Writing OUTPUT_TOUR_FILE: "baseline_results/cvrp_lkh/Vrp-Set-X-n502/Vrp-Set-X-n502-lkh/0.lkh1.tour" ... done
* 150: Cost = 0_7008649, Time = 2.24 sec. 
Writing OUTPUT_TOUR_FILE: "baseline_results/cvrp_lkh/Vrp-Set-X-n502/Vrp-Set-X-n502-lkh/0.lkh1.tour" ... done
* 155: Cost = 0_7002945, Time = 2.28 sec. 
Writing OUTPUT_TOUR_FILE: "baseline_results/cvrp_lkh/Vrp-Set-X-n502/Vrp-Set-X-n502-lkh/0.lkh1.tour" ... done
* 166: Cost = 0_7002719, Time = 2.39 sec. 
Writing OUTPUT_TOUR_FILE: "baseline_results/cvrp_lkh/Vrp-Set-X-n502/Vrp-Set-X-n502-lkh/0.lkh1.tour" ... done
* 169: Cost = 0_6999925, Time = 2.50 sec. 
Writing OUTPUT_TOUR_FILE: "baseline_results/cvrp_lkh/Vrp-Set-X-n502/Vrp-Set-X-n502-lkh/0.lkh1.tour" ... done
* 176: Cost = 0_6998317, Time = 2.61 sec. 
Writing OUTPUT_TOUR_FILE: "baseline_results/cvrp_lkh/Vrp-Set-X-n502/Vrp-Set-X-n502-lkh/0.lkh1.tour" ... done
* 200: Cost = 0_6998020, Time = 2.96 sec. 
Writing OUTPUT_TOUR_FILE: "baseline_results/cvrp_lkh/Vrp-Set-X-n502/Vrp-Set-X-n502-lkh/0.lkh1.tour" ... done
* 202: Cost = 0_6996693, Time = 2.96 sec. 
Writing OUTPUT_TOUR_FILE: "baseline_results/cvrp_lkh/Vrp-Set-X-n502/Vrp-Set-X-n502-lkh/0.lkh1.tour" ... done
* 203: Cost = 0_6996368, Time = 3.02 sec. 
Writing OUTPUT_TOUR_FILE: "baseline_results/cvrp_lkh/Vrp-Set-X-n502/Vrp-Set-X-n502-lkh/0.lkh1.tour" ... done
* 233: Cost = 0_6994390, Time = 3.22 sec. 
Writing OUTPUT_TOUR_FILE: "baseline_results/cvrp_lkh/Vrp-Set-X-n502/Vrp-Set-X-n502-lkh/0.lkh1.tour" ... done
* 253: Cost = 0_6993389, Time = 3.38 sec. 
Writing OUTPUT_TOUR_FILE: "baseline_results/cvrp_lkh/Vrp-Set-X-n502/Vrp-Set-X-n502-lkh/0.lkh1.tour" ... done
* 257: Cost = 0_6993148, Time = 3.40 sec. 
Writing OUTPUT_TOUR_FILE: "baseline_results/cvrp_lkh/Vrp-Set-X-n502/Vrp-Set-X-n502-lkh/0.lkh1.tour" ... done
* 265: Cost = 0_6992948, Time = 3.43 sec. 
Writing OUTPUT_TOUR_FILE: "baseline_results/cvrp_lkh/Vrp-Set-X-n502/Vrp-Set-X-n502-lkh/0.lkh1.tour" ... done
* 285: Cost = 0_6992517, Time = 3.63 sec. 
Writing OUTPUT_TOUR_FILE: "baseline_results/cvrp_lkh/Vrp-Set-X-n502/Vrp-Set-X-n502-lkh/0.lkh1.tour" ... done
* 302: Cost = 0_6992189, Time = 3.80 sec. 
Writing OUTPUT_TOUR_FILE: "baseline_results/cvrp_lkh/Vrp-Set-X-n502/Vrp-Set-X-n502-lkh/0.lkh1.tour" ... done
* 303: Cost = 0_6991818, Time = 3.81 sec. 
Writing OUTPUT_TOUR_FILE: "baseline_results/cvrp_lkh/Vrp-Set-X-n502/Vrp-Set-X-n502-lkh/0.lkh1.tour" ... done
* 311: Cost = 0_6990873, Time = 3.88 sec. 
Writing OUTPUT_TOUR_FILE: "baseline_results/cvrp_lkh/Vrp-Set-X-n502/Vrp-Set-X-n502-lkh/0.lkh1.tour" ... done
* 316: Cost = 0_6990737, Time = 3.95 sec. 
Writing OUTPUT_TOUR_FILE: "baseline_results/cvrp_lkh/Vrp-Set-X-n502/Vrp-Set-X-n502-lkh/0.lkh1.tour" ... done
* 367: Cost = 0_6990531, Time = 4.51 sec. 
Writing OUTPUT_TOUR_FILE: "baseline_results/cvrp_lkh/Vrp-Set-X-n502/Vrp-Set-X-n502-lkh/0.lkh1.tour" ... done
* 387: Cost = 0_6990316, Time = 4.74 sec. 
Writing OUTPUT_TOUR_FILE: "baseline_results/cvrp_lkh/Vrp-Set-X-n502/Vrp-Set-X-n502-lkh/0.lkh1.tour" ... done
* 398: Cost = 0_6989654, Time = 4.89 sec. 
Writing OUTPUT_TOUR_FILE: "baseline_results/cvrp_lkh/Vrp-Set-X-n502/Vrp-Set-X-n502-lkh/0.lkh1.tour" ... done
* 466: Cost = 0_6989302, Time = 5.72 sec. 
Writing OUTPUT_TOUR_FILE: "baseline_results/cvrp_lkh/Vrp-Set-X-n502/Vrp-Set-X-n502-lkh/0.lkh1.tour" ... done
* 478: Cost = 0_6988426, Time = 5.85 sec. 
Writing OUTPUT_TOUR_FILE: "baseline_results/cvrp_lkh/Vrp-Set-X-n502/Vrp-Set-X-n502-lkh/0.lkh1.tour" ... done
* 483: Cost = 0_6988232, Time = 5.88 sec. 
Writing OUTPUT_TOUR_FILE: "baseline_results/cvrp_lkh/Vrp-Set-X-n502/Vrp-Set-X-n502-lkh/0.lkh1.tour" ... done
* 500: Cost = 0_6987768, Time = 6.07 sec. 
Writing OUTPUT_TOUR_FILE: "baseline_results/cvrp_lkh/Vrp-Set-X-n502/Vrp-Set-X-n502-lkh/0.lkh1.tour" ... done
* 504: Cost = 0_6987574, Time = 6.12 sec. 
Writing OUTPUT_TOUR_FILE: "baseline_results/cvrp_lkh/Vrp-Set-X-n502/Vrp-Set-X-n502-lkh/0.lkh1.tour" ... done
* 521: Cost = 0_6987563, Time = 6.20 sec. 
Writing OUTPUT_TOUR_FILE: "baseline_results/cvrp_lkh/Vrp-Set-X-n502/Vrp-Set-X-n502-lkh/0.lkh1.tour" ... done
* 522: Cost = 0_6986531, Time = 6.20 sec. 
Writing OUTPUT_TOUR_FILE: "baseline_results/cvrp_lkh/Vrp-Set-X-n502/Vrp-Set-X-n502-lkh/0.lkh1.tour" ... done
* 525: Cost = 0_6985881, Time = 6.24 sec. 
Writing OUTPUT_TOUR_FILE: "baseline_results/cvrp_lkh/Vrp-Set-X-n502/Vrp-Set-X-n502-lkh/0.lkh1.tour" ... done
* 580: Cost = 0_6985828, Time = 6.76 sec. 
Writing OUTPUT_TOUR_FILE: "baseline_results/cvrp_lkh/Vrp-Set-X-n502/Vrp-Set-X-n502-lkh/0.lkh1.tour" ... done
* 582: Cost = 0_6985599, Time = 6.77 sec. 
Writing OUTPUT_TOUR_FILE: "baseline_results/cvrp_lkh/Vrp-Set-X-n502/Vrp-Set-X-n502-lkh/0.lkh1.tour" ... done
* 620: Cost = 0_6985221, Time = 7.06 sec. 
Writing OUTPUT_TOUR_FILE: "baseline_results/cvrp_lkh/Vrp-Set-X-n502/Vrp-Set-X-n502-lkh/0.lkh1.tour" ... done
* 636: Cost = 0_6985041, Time = 7.22 sec. 
Writing OUTPUT_TOUR_FILE: "baseline_results/cvrp_lkh/Vrp-Set-X-n502/Vrp-Set-X-n502-lkh/0.lkh1.tour" ... done
* 641: Cost = 0_6983905, Time = 7.25 sec. 
Writing OUTPUT_TOUR_FILE: "baseline_results/cvrp_lkh/Vrp-Set-X-n502/Vrp-Set-X-n502-lkh/0.lkh1.tour" ... done
* 672: Cost = 0_6983464, Time = 7.64 sec. 
Writing OUTPUT_TOUR_FILE: "baseline_results/cvrp_lkh/Vrp-Set-X-n502/Vrp-Set-X-n502-lkh/0.lkh1.tour" ... done
* 684: Cost = 0_6983385, Time = 7.78 sec. 
Writing OUTPUT_TOUR_FILE: "baseline_results/cvrp_lkh/Vrp-Set-X-n502/Vrp-Set-X-n502-lkh/0.lkh1.tour" ... done
* 700: Cost = 0_6982585, Time = 7.94 sec. 
Writing OUTPUT_TOUR_FILE: "baseline_results/cvrp_lkh/Vrp-Set-X-n502/Vrp-Set-X-n502-lkh/0.lkh1.tour" ... done
* 703: Cost = 0_6982213, Time = 7.95 sec. 
Writing OUTPUT_TOUR_FILE: "baseline_results/cvrp_lkh/Vrp-Set-X-n502/Vrp-Set-X-n502-lkh/0.lkh1.tour" ... done
* 757: Cost = 0_6981133, Time = 8.71 sec. 
Writing OUTPUT_TOUR_FILE: "baseline_results/cvrp_lkh/Vrp-Set-X-n502/Vrp-Set-X-n502-lkh/0.lkh1.tour" ... done
* 802: Cost = 0_6981081, Time = 9.12 sec. 
Writing OUTPUT_TOUR_FILE: "baseline_results/cvrp_lkh/Vrp-Set-X-n502/Vrp-Set-X-n502-lkh/0.lkh1.tour" ... done
* 856: Cost = 0_6979478, Time = 9.61 sec. 
Writing OUTPUT_TOUR_FILE: "baseline_results/cvrp_lkh/Vrp-Set-X-n502/Vrp-Set-X-n502-lkh/0.lkh1.tour" ... done
* 872: Cost = 0_6977981, Time = 9.71 sec. 
Writing OUTPUT_TOUR_FILE: "baseline_results/cvrp_lkh/Vrp-Set-X-n502/Vrp-Set-X-n502-lkh/0.lkh1.tour" ... done
* 946: Cost = 0_6977344, Time = 10.24 sec. 
Writing OUTPUT_TOUR_FILE: "baseline_results/cvrp_lkh/Vrp-Set-X-n502/Vrp-Set-X-n502-lkh/0.lkh1.tour" ... done
* 983: Cost = 0_6976599, Time = 10.58 sec. 
Writing OUTPUT_TOUR_FILE: "baseline_results/cvrp_lkh/Vrp-Set-X-n502/Vrp-Set-X-n502-lkh/0.lkh1.tour" ... done
* 1000: Cost = 0_6976218, Time = 10.73 sec. 
Writing OUTPUT_TOUR_FILE: "baseline_results/cvrp_lkh/Vrp-Set-X-n502/Vrp-Set-X-n502-lkh/0.lkh1.tour" ... done
* 1006: Cost = 0_6976125, Time = 10.78 sec. 
Writing OUTPUT_TOUR_FILE: "baseline_results/cvrp_lkh/Vrp-Set-X-n502/Vrp-Set-X-n502-lkh/0.lkh1.tour" ... done
* 1009: Cost = 0_6975971, Time = 10.82 sec. 
Writing OUTPUT_TOUR_FILE: "baseline_results/cvrp_lkh/Vrp-Set-X-n502/Vrp-Set-X-n502-lkh/0.lkh1.tour" ... done
* 1029: Cost = 0_6973754, Time = 10.92 sec. 
Writing OUTPUT_TOUR_FILE: "baseline_results/cvrp_lkh/Vrp-Set-X-n502/Vrp-Set-X-n502-lkh/0.lkh1.tour" ... done
* 1050: Cost = 0_6971727, Time = 11.01 sec. 
Writing OUTPUT_TOUR_FILE: "baseline_results/cvrp_lkh/Vrp-Set-X-n502/Vrp-Set-X-n502-lkh/0.lkh1.tour" ... done
* 1056: Cost = 0_6971466, Time = 11.07 sec. 
Writing OUTPUT_TOUR_FILE: "baseline_results/cvrp_lkh/Vrp-Set-X-n502/Vrp-Set-X-n502-lkh/0.lkh1.tour" ... done
* 1116: Cost = 0_6971218, Time = 11.74 sec. 
Writing OUTPUT_TOUR_FILE: "baseline_results/cvrp_lkh/Vrp-Set-X-n502/Vrp-Set-X-n502-lkh/0.lkh1.tour" ... done
* 1140: Cost = 0_6971067, Time = 12.00 sec. 
Writing OUTPUT_TOUR_FILE: "baseline_results/cvrp_lkh/Vrp-Set-X-n502/Vrp-Set-X-n502-lkh/0.lkh1.tour" ... done
* 1174: Cost = 0_6966349, Time = 12.22 sec. 
Writing OUTPUT_TOUR_FILE: "baseline_results/cvrp_lkh/Vrp-Set-X-n502/Vrp-Set-X-n502-lkh/0.lkh1.tour" ... done
* 1187: Cost = 0_6966311, Time = 12.27 sec. 
Writing OUTPUT_TOUR_FILE: "baseline_results/cvrp_lkh/Vrp-Set-X-n502/Vrp-Set-X-n502-lkh/0.lkh1.tour" ... done
* 1250: Cost = 0_6965701, Time = 12.83 sec. 
Writing OUTPUT_TOUR_FILE: "baseline_results/cvrp_lkh/Vrp-Set-X-n502/Vrp-Set-X-n502-lkh/0.lkh1.tour" ... done
* 1262: Cost = 0_6965487, Time = 12.95 sec. 
Writing OUTPUT_TOUR_FILE: "baseline_results/cvrp_lkh/Vrp-Set-X-n502/Vrp-Set-X-n502-lkh/0.lkh1.tour" ... done
* 1352: Cost = 0_6965474, Time = 14.29 sec. 
Writing OUTPUT_TOUR_FILE: "baseline_results/cvrp_lkh/Vrp-Set-X-n502/Vrp-Set-X-n502-lkh/0.lkh1.tour" ... done
* 1451: Cost = 0_6965434, Time = 15.40 sec. 
Writing OUTPUT_TOUR_FILE: "baseline_results/cvrp_lkh/Vrp-Set-X-n502/Vrp-Set-X-n502-lkh/0.lkh1.tour" ... done
* 1477: Cost = 0_6965101, Time = 15.77 sec. 
Writing OUTPUT_TOUR_FILE: "baseline_results/cvrp_lkh/Vrp-Set-X-n502/Vrp-Set-X-n502-lkh/0.lkh1.tour" ... done
* 1498: Cost = 0_6965063, Time = 16.02 sec. 
Writing OUTPUT_TOUR_FILE: "baseline_results/cvrp_lkh/Vrp-Set-X-n502/Vrp-Set-X-n502-lkh/0.lkh1.tour" ... done
* 1503: Cost = 0_6964054, Time = 16.08 sec. 
Writing OUTPUT_TOUR_FILE: "baseline_results/cvrp_lkh/Vrp-Set-X-n502/Vrp-Set-X-n502-lkh/0.lkh1.tour" ... done
* 1510: Cost = 0_6963872, Time = 16.16 sec. 
Writing OUTPUT_TOUR_FILE: "baseline_results/cvrp_lkh/Vrp-Set-X-n502/Vrp-Set-X-n502-lkh/0.lkh1.tour" ... done
* 1515: Cost = 0_6963304, Time = 16.21 sec. 
Writing OUTPUT_TOUR_FILE: "baseline_results/cvrp_lkh/Vrp-Set-X-n502/Vrp-Set-X-n502-lkh/0.lkh1.tour" ... done
* 1566: Cost = 0_6961452, Time = 16.72 sec. 
Writing OUTPUT_TOUR_FILE: "baseline_results/cvrp_lkh/Vrp-Set-X-n502/Vrp-Set-X-n502-lkh/0.lkh1.tour" ... done
* 1579: Cost = 0_6960397, Time = 16.81 sec. 
Writing OUTPUT_TOUR_FILE: "baseline_results/cvrp_lkh/Vrp-Set-X-n502/Vrp-Set-X-n502-lkh/0.lkh1.tour" ... done
* 1632: Cost = 0_6959909, Time = 17.19 sec. 
Writing OUTPUT_TOUR_FILE: "baseline_results/cvrp_lkh/Vrp-Set-X-n502/Vrp-Set-X-n502-lkh/0.lkh1.tour" ... done
* 1643: Cost = 0_6959706, Time = 17.28 sec. 
Writing OUTPUT_TOUR_FILE: "baseline_results/cvrp_lkh/Vrp-Set-X-n502/Vrp-Set-X-n502-lkh/0.lkh1.tour" ... done
* 1869: Cost = 0_6959084, Time = 19.47 sec. 
Writing OUTPUT_TOUR_FILE: "baseline_results/cvrp_lkh/Vrp-Set-X-n502/Vrp-Set-X-n502-lkh/0.lkh1.tour" ... done
* 3218: Cost = 0_6958624, Time = 32.12 sec. 
Writing OUTPUT_TOUR_FILE: "baseline_results/cvrp_lkh/Vrp-Set-X-n502/Vrp-Set-X-n502-lkh/0.lkh1.tour" ... done
* 3534: Cost = 0_6958548, Time = 34.77 sec. 
Writing OUTPUT_TOUR_FILE: "baseline_results/cvrp_lkh/Vrp-Set-X-n502/Vrp-Set-X-n502-lkh/0.lkh1.tour" ... done
* 4732: Cost = 0_6958008, Time = 46.33 sec. 
Writing OUTPUT_TOUR_FILE: "baseline_results/cvrp_lkh/Vrp-Set-X-n502/Vrp-Set-X-n502-lkh/0.lkh1.tour" ... done
* 4857: Cost = 0_6957866, Time = 47.48 sec. 
Writing OUTPUT_TOUR_FILE: "baseline_results/cvrp_lkh/Vrp-Set-X-n502/Vrp-Set-X-n502-lkh/0.lkh1.tour" ... done
* 4866: Cost = 0_6956898, Time = 47.71 sec. 
Writing OUTPUT_TOUR_FILE: "baseline_results/cvrp_lkh/Vrp-Set-X-n502/Vrp-Set-X-n502-lkh/0.lkh1.tour" ... done
* 4971: Cost = 0_6955236, Time = 48.41 sec. 
Writing OUTPUT_TOUR_FILE: "baseline_results/cvrp_lkh/Vrp-Set-X-n502/Vrp-Set-X-n502-lkh/0.lkh1.tour" ... done
* 5255: Cost = 0_6955127, Time = 50.60 sec. 
Writing OUTPUT_TOUR_FILE: "baseline_results/cvrp_lkh/Vrp-Set-X-n502/Vrp-Set-X-n502-lkh/0.lkh1.tour" ... done
* 5312: Cost = 0_6955006, Time = 51.10 sec. 
Writing OUTPUT_TOUR_FILE: "baseline_results/cvrp_lkh/Vrp-Set-X-n502/Vrp-Set-X-n502-lkh/0.lkh1.tour" ... done
* 5448: Cost = 0_6953477, Time = 52.01 sec. 
Writing OUTPUT_TOUR_FILE: "baseline_results/cvrp_lkh/Vrp-Set-X-n502/Vrp-Set-X-n502-lkh/0.lkh1.tour" ... done
* 5455: Cost = 0_6953355, Time = 52.08 sec. 
Writing OUTPUT_TOUR_FILE: "baseline_results/cvrp_lkh/Vrp-Set-X-n502/Vrp-Set-X-n502-lkh/0.lkh1.tour" ... done
* 5457: Cost = 0_6952816, Time = 52.09 sec. 
Writing OUTPUT_TOUR_FILE: "baseline_results/cvrp_lkh/Vrp-Set-X-n502/Vrp-Set-X-n502-lkh/0.lkh1.tour" ... done
* 5550: Cost = 0_6952308, Time = 52.91 sec. 
Writing OUTPUT_TOUR_FILE: "baseline_results/cvrp_lkh/Vrp-Set-X-n502/Vrp-Set-X-n502-lkh/0.lkh1.tour" ... done
* 5565: Cost = 0_6951241, Time = 53.00 sec. 
Writing OUTPUT_TOUR_FILE: "baseline_results/cvrp_lkh/Vrp-Set-X-n502/Vrp-Set-X-n502-lkh/0.lkh1.tour" ... done
* 6469: Cost = 0_6951120, Time = 59.84 sec. 
Writing OUTPUT_TOUR_FILE: "baseline_results/cvrp_lkh/Vrp-Set-X-n502/Vrp-Set-X-n502-lkh/0.lkh1.tour" ... done
* 6489: Cost = 0_6951103, Time = 59.91 sec. 
Writing OUTPUT_TOUR_FILE: "baseline_results/cvrp_lkh/Vrp-Set-X-n502/Vrp-Set-X-n502-lkh/0.lkh1.tour" ... done
* 6506: Cost = 0_6950742, Time = 59.98 sec. 
Writing OUTPUT_TOUR_FILE: "baseline_results/cvrp_lkh/Vrp-Set-X-n502/Vrp-Set-X-n502-lkh/0.lkh1.tour" ... done
* 6616: Cost = 0_6950608, Time = 60.97 sec. 
Writing OUTPUT_TOUR_FILE: "baseline_results/cvrp_lkh/Vrp-Set-X-n502/Vrp-Set-X-n502-lkh/0.lkh1.tour" ... done
* 6634: Cost = 0_6950526, Time = 61.16 sec. 
Writing OUTPUT_TOUR_FILE: "baseline_results/cvrp_lkh/Vrp-Set-X-n502/Vrp-Set-X-n502-lkh/0.lkh1.tour" ... done
* 6756: Cost = 0_6950492, Time = 62.15 sec. 
Writing OUTPUT_TOUR_FILE: "baseline_results/cvrp_lkh/Vrp-Set-X-n502/Vrp-Set-X-n502-lkh/0.lkh1.tour" ... done
* 7041: Cost = 0_6950355, Time = 64.23 sec. 
Writing OUTPUT_TOUR_FILE: "baseline_results/cvrp_lkh/Vrp-Set-X-n502/Vrp-Set-X-n502-lkh/0.lkh1.tour" ... done
* 7095: Cost = 0_6950259, Time = 64.55 sec. 
Writing OUTPUT_TOUR_FILE: "baseline_results/cvrp_lkh/Vrp-Set-X-n502/Vrp-Set-X-n502-lkh/0.lkh1.tour" ... done
* 7277: Cost = 0_6950025, Time = 66.54 sec. 
Writing OUTPUT_TOUR_FILE: "baseline_results/cvrp_lkh/Vrp-Set-X-n502/Vrp-Set-X-n502-lkh/0.lkh1.tour" ... done
* 7733: Cost = 0_6949314, Time = 70.44 sec. 
Writing OUTPUT_TOUR_FILE: "baseline_results/cvrp_lkh/Vrp-Set-X-n502/Vrp-Set-X-n502-lkh/0.lkh1.tour" ... done
* 7903: Cost = 0_6949197, Time = 71.91 sec. 
Writing OUTPUT_TOUR_FILE: "baseline_results/cvrp_lkh/Vrp-Set-X-n502/Vrp-Set-X-n502-lkh/0.lkh1.tour" ... done
* 8267: Cost = 0_6949195, Time = 74.94 sec. 
Writing OUTPUT_TOUR_FILE: "baseline_results/cvrp_lkh/Vrp-Set-X-n502/Vrp-Set-X-n502-lkh/0.lkh1.tour" ... done
* 8359: Cost = 0_6948664, Time = 75.96 sec. 
Writing OUTPUT_TOUR_FILE: "baseline_results/cvrp_lkh/Vrp-Set-X-n502/Vrp-Set-X-n502-lkh/0.lkh1.tour" ... done
* 8405: Cost = 0_6948513, Time = 76.53 sec. 
Writing OUTPUT_TOUR_FILE: "baseline_results/cvrp_lkh/Vrp-Set-X-n502/Vrp-Set-X-n502-lkh/0.lkh1.tour" ... done
* 8482: Cost = 0_6948252, Time = 77.17 sec. 
Writing OUTPUT_TOUR_FILE: "baseline_results/cvrp_lkh/Vrp-Set-X-n502/Vrp-Set-X-n502-lkh/0.lkh1.tour" ... done
* 9205: Cost = 0_6948233, Time = 83.65 sec. 
Writing OUTPUT_TOUR_FILE: "baseline_results/cvrp_lkh/Vrp-Set-X-n502/Vrp-Set-X-n502-lkh/0.lkh1.tour" ... done
* 9254: Cost = 0_6948030, Time = 84.46 sec. 
Writing OUTPUT_TOUR_FILE: "baseline_results/cvrp_lkh/Vrp-Set-X-n502/Vrp-Set-X-n502-lkh/0.lkh1.tour" ... done
* 9362: Cost = 0_6947910, Time = 85.33 sec. 
Writing OUTPUT_TOUR_FILE: "baseline_results/cvrp_lkh/Vrp-Set-X-n502/Vrp-Set-X-n502-lkh/0.lkh1.tour" ... done
* 9801: Cost = 0_6947245, Time = 89.20 sec. 
Writing OUTPUT_TOUR_FILE: "baseline_results/cvrp_lkh/Vrp-Set-X-n502/Vrp-Set-X-n502-lkh/0.lkh1.tour" ... done
Population:
  1: 0_6947245
Run 1: Cost = 0_6947245, Time = 90.99 sec. 

Successes/Runs = 0/1 
Cost.min = 6947245, Cost.avg = 6947245.00, Cost.max = 6947245
Gap.min = 0.0000%, Gap.avg = 0.0000%, Gap.max = 0.0000%
Penalty.min = 0, Penalty.avg = 0.00, Penalty.max = 0
Trials.min = 10000, Trials.avg = 10000.0, Trials.max = 10000
Time.min = 90.99 sec., Time.avg = 90.99 sec., Time.max = 90.99 sec.
Time.total = 91.26 sec.
  Size.min = 11, Size.max = 13, Penalty = 0
  Cost.min = 118822, Cost.max = 248231, Cost.sum = 6947245
Best CVRP solution:
  Cost = 0_6947245

