experiment/data/lkh-res/Vrp-Set-X-n502/Vrp-Set-X-n502-lkh/0.lkh1.tour
NAME : 0.6947245.tour
COMMENT : Length = 6947245
COMMENT : Found by LKH-3 [Keld Helsgaun] Tue Apr  9 09:32:40 2024
TYPE : TOUR
DIMENSION : 540
TOUR_SECTION
1
94
336
499
459
287
332
182
396
78
325
217
504
91
130
467
465
240
68
133
440
444
273
150
330
36
538
435
20
41
453
239
331
284
93
206
380
125
508
472
335
324
257
63
278
306
37
466
323
238
205
354
517
418
373
424
66
328
349
376
16
90
431
362
147
173
503
7
127
457
160
129
50
405
279
115
169
34
417
439
533
229
359
452
445
409
120
195
149
368
177
211
342
428
522
145
122
419
262
27
432
400
381
312
2
158
15
64
520
99
447
96
25
314
455
112
322
233
351
88
97
210
530
161
471
270
393
60
352
136
32
39
22
70
243
277
540
170
413
470
426
258
167
297
52
3
299
165
157
438
529
246
43
74
143
259
212
73
4
395
448
412
268
281
516
162
171
113
117
137
111
454
425
241
264
80
123
365
531
106
172
485
48
267
489
496
482
410
248
427
346
252
514
289
430
23
255
54
82
386
199
148
227
316
146
45
536
194
89
168
311
387
101
138
203
163
269
164
271
10
528
356
192
200
126
232
254
488
156
202
30
151
518
110
87
67
341
46
183
100
343
358
329
139
473
124
521
293
228
247
478
282
463
492
296
348
491
394
458
398
509
51
420
370
140
109
390
303
62
291
337
326
249
260
513
434
460
144
191
189
280
397
225
377
475
141
302
474
523
371
174
497
501
382
265
433
327
462
317
75
385
102
524
175
221
59
333
253
363
185
446
83
436
486
104
213
505
415
367
201
347
98
69
28
256
181
304
374
204
209
515
502
261
369
464
300
79
361
31
242
487
495
208
339
539
479
29
272
13
190
290
44
307
215
105
379
500
389
507
81
118
128
85
416
234
153
372
11
319
19
17
166
525
71
301
360
310
224
461
223
38
378
116
437
344
186
532
441
84
283
77
198
340
468
134
222
24
196
86
350
534
40
318
33
108
450
469
154
375
313
364
159
219
408
511
119
230
288
95
250
334
443
305
180
14
357
55
236
526
355
321
57
197
21
132
142
423
5
53
193
178
308
519
315
295
451
456
263
402
237
484
72
226
245
285
383
537
12
184
135
6
494
275
399
47
298
345
294
481
442
535
61
49
384
490
414
58
179
403
9
35
231
286
176
527
429
8
406
476
411
26
422
214
155
216
76
103
244
512
276
207
65
218
251
266
309
274
493
392
388
320
391
510
338
498
292
220
407
353
480
92
483
152
477
114
42
506
187
449
188
404
18
366
421
56
107
121
131
235
401
-1
EOF
